45
1000
200	5
199	1
198	2
197	1
196	1
195	2
193	1
192	1
191	2
190	1
189	2
188	3
187	2
186	6
185	1
184	2
183	3
182	1
181	1
180	2
179	1
178	1
177	4
176	3
175	1
174	3
173	3
172	1
171	1
169	1
168	3
167	1
166	6
165	2
164	5
163	1
161	3
160	5
159	2
157	1
155	3
154	2
152	4
151	1
150	2
